
Gurobi 7.5.1 (win64, Python) logging started 12/05/17 11:56:52


Gurobi 7.5.1 (win64, Python) logging started 12/05/17 11:58:08


Gurobi 7.5.1 (win64, Python) logging started 12/05/17 11:59:53


Gurobi 7.5.1 (win64, Python) logging started 12/05/17 12:01:31


Gurobi 7.5.1 (win64, Python) logging started 12/05/17 12:05:15


Gurobi 7.5.1 (win64, Python) logging started 12/05/17 12:07:05


Gurobi 7.5.1 (win64, Python) logging started 12/05/17 12:29:44


Gurobi 7.5.1 (win64, Python) logging started 12/05/17 12:32:34


Gurobi 7.5.1 (win64, Python) logging started 12/05/17 12:35:37


Gurobi 7.5.1 (win64, Python) logging started 12/05/17 12:36:43


Gurobi 7.5.1 (win64, Python) logging started 12/05/17 12:38:58


Gurobi 7.5.1 (win64, Python) logging started 12/05/17 12:42:06


Gurobi 7.5.1 (win64, Python) logging started 12/05/17 12:46:03


Gurobi 7.5.1 (win64, Python) logging started 12/05/17 12:46:57


Gurobi 7.5.1 (win64, Python) logging started 12/05/17 12:49:21


Gurobi 7.5.1 (win64, Python) logging started 12/05/17 12:53:57


Gurobi 7.5.1 (win64, Python) logging started 12/05/17 13:05:59


Gurobi 7.5.1 (win64, Python) logging started 12/05/17 13:07:43


Gurobi 7.5.1 (win64, Python) logging started 12/05/17 13:08:37


Gurobi 7.5.1 (win64, Python) logging started 12/05/17 13:12:51


Gurobi 7.5.1 (win64, Python) logging started 12/05/17 13:17:12


Gurobi 7.5.1 (win64, Python) logging started 12/05/17 13:30:28


Gurobi 7.5.1 (win64, Python) logging started 12/05/17 17:10:50


Gurobi 7.5.1 (win64, Python) logging started 12/05/17 17:12:47


Gurobi 7.5.1 (win64, Python) logging started 12/05/17 17:52:49


Gurobi 7.5.1 (win64, Python) logging started 12/05/17 17:54:39


Gurobi 7.5.1 (win64, Python) logging started 12/05/17 17:59:32


Gurobi 7.5.1 (win64, Python) logging started 12/05/17 18:07:08


Gurobi 7.5.1 (win64, Python) logging started 12/05/17 18:07:48


Gurobi 7.5.1 (win64, Python) logging started 12/05/17 18:09:23


Gurobi 7.5.1 (win64, Python) logging started 12/05/17 18:11:14


Gurobi 7.5.1 (win64, Python) logging started 12/05/17 18:13:47


Gurobi 7.5.1 (win64, Python) logging started 12/05/17 18:14:37


Gurobi 7.5.1 (win64, Python) logging started 12/05/17 18:15:41


Gurobi 7.5.1 (win64, Python) logging started 12/05/17 18:16:40


Gurobi 7.5.1 (win64, Python) logging started 12/05/17 18:17:36


Gurobi 7.5.1 (win64, Python) logging started 12/05/17 18:19:09


Gurobi 7.5.1 (win64, Python) logging started 12/05/17 18:20:01


Gurobi 7.5.1 (win64, Python) logging started 12/05/17 18:20:30


Gurobi 7.5.1 (win64, Python) logging started 12/05/17 18:22:28


Gurobi 7.5.1 (win64, Python) logging started 12/05/17 18:23:41


Gurobi 7.5.1 (win64, Python) logging started 12/05/17 18:24:29


Gurobi 7.5.1 (win64, Python) logging started 12/05/17 18:25:42


Gurobi 7.5.1 (win64, Python) logging started 12/05/17 18:26:34


Gurobi 7.5.1 (win64, Python) logging started 12/05/17 18:27:23


Gurobi 7.5.1 (win64, Python) logging started 12/05/17 18:39:28


Gurobi 7.5.1 (win64, Python) logging started 12/05/17 18:39:57


Gurobi 7.5.1 (win64, Python) logging started 12/05/17 18:40:53


Gurobi 7.5.1 (win64, Python) logging started 12/05/17 18:41:30


Gurobi 7.5.1 (win64, Python) logging started 12/05/17 18:41:47


Gurobi 7.5.1 (win64, Python) logging started 12/05/17 18:41:59


Gurobi 7.5.1 (win64, Python) logging started 12/05/17 18:45:36


Gurobi 7.5.1 (win64, Python) logging started 12/05/17 18:50:00


Gurobi 7.5.1 (win64, Python) logging started 12/05/17 18:50:36


Gurobi 7.5.1 (win64, Python) logging started 12/05/17 18:51:39


Gurobi 7.5.1 (win64, Python) logging started 12/05/17 18:51:56


Gurobi 7.5.1 (win64, Python) logging started 12/05/17 18:54:24


Gurobi 7.5.1 (win64, Python) logging started 12/05/17 18:55:12


Gurobi 7.5.1 (win64, Python) logging started 12/05/17 18:55:35


Gurobi 7.5.1 (win64, Python) logging started 12/05/17 18:56:07


Gurobi 7.5.1 (win64, Python) logging started 12/05/17 18:56:33


Gurobi 7.5.1 (win64, Python) logging started 12/05/17 18:58:21


Gurobi 7.5.1 (win64, Python) logging started 12/05/17 19:00:40


Gurobi 7.5.1 (win64, Python) logging started 12/05/17 19:00:58


Gurobi 7.5.1 (win64, Python) logging started 12/05/17 19:01:52


Gurobi 7.5.1 (win64, Python) logging started 12/05/17 19:02:29


Gurobi 7.5.1 (win64, Python) logging started 12/05/17 19:03:12


Gurobi 7.5.1 (win64, Python) logging started 12/05/17 19:04:11


Gurobi 7.5.1 (win64, Python) logging started 12/05/17 19:04:54


Gurobi 7.5.1 (win64, Python) logging started 12/05/17 19:05:19


Gurobi 7.5.1 (win64, Python) logging started 12/05/17 19:06:06


Gurobi 7.5.1 (win64, Python) logging started 12/05/17 19:06:34


Gurobi 7.5.1 (win64, Python) logging started 12/05/17 19:15:16


Gurobi 7.5.1 (win64, Python) logging started 12/05/17 19:16:02


Gurobi 7.5.1 (win64, Python) logging started 12/05/17 19:16:19


Gurobi 7.5.1 (win64, Python) logging started 12/05/17 19:18:31


Gurobi 7.5.1 (win64, Python) logging started 12/05/17 19:19:12


Gurobi 7.5.1 (win64, Python) logging started 12/05/17 19:20:04


Gurobi 7.5.1 (win64, Python) logging started 12/05/17 19:20:22


Gurobi 7.5.1 (win64, Python) logging started 12/05/17 19:21:44


Gurobi 7.5.1 (win64, Python) logging started 12/05/17 19:25:36


Gurobi 7.5.1 (win64, Python) logging started 12/05/17 19:27:17


Gurobi 7.5.1 (win64, Python) logging started 12/05/17 19:28:01


Gurobi 7.5.1 (win64, Python) logging started 12/05/17 19:29:13


Gurobi 7.5.1 (win64, Python) logging started 12/05/17 19:30:08


Gurobi 7.5.1 (win64, Python) logging started 12/05/17 19:30:24


Gurobi 7.5.1 (win64, Python) logging started 12/05/17 19:33:25


Gurobi 7.5.1 (win64, Python) logging started 12/05/17 19:34:04


Gurobi 7.5.1 (win64, Python) logging started 12/05/17 19:34:25


Gurobi 7.5.1 (win64, Python) logging started 12/05/17 19:35:13


Gurobi 7.5.1 (win64, Python) logging started 12/05/17 19:37:14


Gurobi 7.5.1 (win64, Python) logging started 12/05/17 19:37:49


Gurobi 7.5.1 (win64, Python) logging started 12/05/17 19:38:40


Gurobi 7.5.1 (win64, Python) logging started 12/05/17 19:38:58


Gurobi 7.5.1 (win64, Python) logging started 12/05/17 19:39:38


Gurobi 7.5.1 (win64, Python) logging started 12/05/17 19:40:05


Gurobi 7.5.1 (win64, Python) logging started 12/05/17 19:40:33


Gurobi 7.5.1 (win64, Python) logging started 12/05/17 19:41:51


Gurobi 7.5.1 (win64, Python) logging started 12/05/17 19:43:20


Gurobi 7.5.1 (win64, Python) logging started 12/05/17 19:43:59


Gurobi 7.5.1 (win64, Python) logging started 12/05/17 19:44:16


Gurobi 7.5.1 (win64, Python) logging started 12/05/17 19:44:57


Gurobi 7.5.1 (win64, Python) logging started 12/05/17 19:46:13


Gurobi 7.5.1 (win64, Python) logging started 12/05/17 19:47:28


Gurobi 7.5.1 (win64, Python) logging started 12/05/17 19:48:19


Gurobi 7.5.1 (win64, Python) logging started 12/05/17 19:49:11


Gurobi 7.5.1 (win64, Python) logging started 12/05/17 19:50:50


Gurobi 7.5.1 (win64, Python) logging started 12/05/17 19:52:00


Gurobi 7.5.1 (win64, Python) logging started 12/05/17 19:52:50


Gurobi 7.5.1 (win64, Python) logging started 12/05/17 19:53:08


Gurobi 7.5.1 (win64, Python) logging started 12/05/17 19:53:23


Gurobi 7.5.1 (win64, Python) logging started 12/05/17 19:53:35


Gurobi 7.5.1 (win64, Python) logging started 12/05/17 19:59:10


Gurobi 7.5.1 (win64, Python) logging started 12/05/17 20:00:37


Gurobi 7.5.1 (win64, Python) logging started 12/05/17 20:02:02


Gurobi 7.5.1 (win64, Python) logging started 12/05/17 20:03:20


Gurobi 7.5.1 (win64, Python) logging started 12/05/17 21:04:38


Gurobi 7.5.1 (win64, Python) logging started 12/05/17 21:08:36


Gurobi 7.5.1 (win64, Python) logging started 12/05/17 21:28:03


Gurobi 7.5.1 (win64, Python) logging started 12/07/17 15:02:48


Gurobi 7.5.1 (win64, Python) logging started 12/07/17 15:03:59


Gurobi 7.5.1 (win64, Python) logging started 12/12/17 14:19:35


Gurobi 7.5.1 (win64, Python) logging started 12/12/17 14:22:54


Gurobi 7.5.1 (win64, Python) logging started 12/12/17 14:25:03


Gurobi 7.5.1 (win64, Python) logging started 12/12/17 14:29:24


Gurobi 7.5.1 (win64, Python) logging started 12/12/17 14:31:06


Gurobi 7.5.1 (win64, Python) logging started 12/12/17 14:32:19


Gurobi 7.5.1 (win64, Python) logging started 12/12/17 14:34:01


Gurobi 7.5.1 (win64, Python) logging started 12/12/17 14:40:27


Gurobi 7.5.1 (win64, Python) logging started 12/12/17 14:43:48


Gurobi 7.5.1 (win64, Python) logging started 12/12/17 14:49:28


Gurobi 7.5.1 (win64, Python) logging started 12/12/17 14:52:02


Gurobi 7.5.1 (win64, Python) logging started 12/12/17 15:35:49


Gurobi 7.5.1 (win64, Python) logging started 12/12/17 15:36:15


Gurobi 7.5.1 (win64, Python) logging started 12/12/17 15:37:44


Gurobi 7.5.1 (win64, Python) logging started 12/12/17 15:39:03


Gurobi 7.5.1 (win64, Python) logging started 12/12/17 15:39:18


Gurobi 7.5.1 (win64, Python) logging started 12/12/17 15:40:03


Gurobi 7.5.1 (win64, Python) logging started 12/12/17 15:40:20


Gurobi 7.5.1 (win64, Python) logging started 12/12/17 15:41:30


Gurobi 7.5.1 (win64, Python) logging started 12/12/17 15:42:15


Gurobi 7.5.1 (win64, Python) logging started 12/12/17 15:42:59


Gurobi 7.5.1 (win64, Python) logging started 12/12/17 15:43:51


Gurobi 7.5.1 (win64, Python) logging started 12/12/17 15:44:28


Gurobi 7.5.1 (win64, Python) logging started 12/12/17 15:45:05


Gurobi 7.5.1 (win64, Python) logging started 12/12/17 15:45:18


Gurobi 7.5.1 (win64, Python) logging started 12/12/17 15:46:28


Gurobi 7.5.1 (win64, Python) logging started 12/12/17 15:47:35


Gurobi 7.5.1 (win64, Python) logging started 12/12/17 15:47:50


Gurobi 7.5.1 (win64, Python) logging started 12/12/17 15:48:15


Gurobi 7.5.1 (win64, Python) logging started 12/12/17 15:49:54


Gurobi 7.5.1 (win64, Python) logging started 12/12/17 15:50:30


Gurobi 7.5.1 (win64, Python) logging started 12/12/17 15:50:43


Gurobi 7.5.1 (win64, Python) logging started 12/12/17 15:52:03


Gurobi 7.5.1 (win64, Python) logging started 12/12/17 15:52:54


Gurobi 7.5.1 (win64, Python) logging started 12/12/17 15:53:46


Gurobi 7.5.1 (win64, Python) logging started 12/12/17 15:54:33


Gurobi 7.5.1 (win64, Python) logging started 12/12/17 15:56:01


Gurobi 7.5.1 (win64, Python) logging started 12/12/17 15:58:05


Gurobi 7.5.1 (win64, Python) logging started 12/12/17 15:58:27


Gurobi 7.5.1 (win64, Python) logging started 12/12/17 15:58:57


Gurobi 7.5.1 (win64, Python) logging started 12/12/17 15:59:20


Gurobi 7.5.1 (win64, Python) logging started 12/12/17 16:00:54


Gurobi 7.5.1 (win64, Python) logging started 12/12/17 16:01:07


Gurobi 7.5.1 (win64, Python) logging started 12/12/17 16:01:23


Gurobi 7.5.1 (win64, Python) logging started 12/12/17 16:01:37


Gurobi 7.5.1 (win64, Python) logging started 12/12/17 16:03:02


Gurobi 7.5.1 (win64, Python) logging started 12/12/17 16:03:17


Gurobi 7.5.1 (win64, Python) logging started 12/12/17 16:03:39


Gurobi 7.5.1 (win64, Python) logging started 12/12/17 16:05:38


Gurobi 7.5.1 (win64, Python) logging started 12/12/17 16:06:17


Gurobi 7.5.1 (win64, Python) logging started 12/12/17 16:07:00


Gurobi 7.5.1 (win64, Python) logging started 12/12/17 16:07:26


Gurobi 7.5.1 (win64, Python) logging started 12/12/17 16:36:10


Gurobi 7.5.1 (win64, Python) logging started 12/12/17 19:36:28


Gurobi 7.5.1 (win64, Python) logging started 12/12/17 19:36:58


Gurobi 7.5.1 (win64, Python) logging started 12/12/17 19:40:20


Gurobi 7.5.1 (win64, Python) logging started 12/12/17 19:40:46


Gurobi 7.5.1 (win64, Python) logging started 12/12/17 19:41:16


Gurobi 7.5.1 (win64, Python) logging started 12/12/17 19:42:22


Gurobi 7.5.1 (win64, Python) logging started 12/12/17 19:42:56


Gurobi 7.5.1 (win64, Python) logging started 12/12/17 19:43:27


Gurobi 7.5.1 (win64, Python) logging started 12/12/17 19:43:53


Gurobi 7.5.1 (win64, Python) logging started 12/12/17 19:44:09


Gurobi 7.5.1 (win64, Python) logging started 12/12/17 19:44:30


Gurobi 7.5.1 (win64, Python) logging started 12/12/17 19:44:39


Gurobi 7.5.1 (win64, Python) logging started 12/12/17 19:44:55


Gurobi 7.5.1 (win64, Python) logging started 12/12/17 19:45:04


Gurobi 7.5.1 (win64, Python) logging started 12/12/17 19:45:17


Gurobi 7.5.1 (win64, Python) logging started 12/12/17 19:45:35


Gurobi 7.5.1 (win64, Python) logging started 12/12/17 19:45:56


Gurobi 7.5.1 (win64, Python) logging started 12/12/17 19:46:07


Gurobi 7.5.1 (win64, Python) logging started 12/12/17 19:46:16


Gurobi 7.5.1 (win64, Python) logging started 12/12/17 19:46:26


Gurobi 7.5.1 (win64, Python) logging started 12/12/17 19:46:35


Gurobi 7.5.1 (win64, Python) logging started 12/12/17 19:46:44


Gurobi 7.5.1 (win64, Python) logging started 12/12/17 19:46:54


Gurobi 7.5.1 (win64, Python) logging started 12/12/17 19:47:04


Gurobi 7.5.1 (win64, Python) logging started 12/12/17 19:47:13


Gurobi 7.5.1 (win64, Python) logging started 12/12/17 19:47:23


Gurobi 7.5.1 (win64, Python) logging started 12/12/17 19:47:31


Gurobi 7.5.1 (win64, Python) logging started 12/12/17 19:47:40


Gurobi 7.5.1 (win64, Python) logging started 12/12/17 19:47:50


Gurobi 7.5.1 (win64, Python) logging started 12/12/17 19:48:00


Gurobi 7.5.1 (win64, Python) logging started 12/12/17 19:48:08


Gurobi 7.5.1 (win64, Python) logging started 12/12/17 19:48:19


Gurobi 7.5.1 (win64, Python) logging started 12/12/17 19:48:29


Gurobi 7.5.1 (win64, Python) logging started 12/12/17 19:48:40


Gurobi 7.5.1 (win64, Python) logging started 12/12/17 19:48:50


Gurobi 7.5.1 (win64, Python) logging started 12/12/17 19:49:00


Gurobi 7.5.1 (win64, Python) logging started 12/12/17 19:49:08


Gurobi 7.5.1 (win64, Python) logging started 12/12/17 19:49:16


Gurobi 7.5.1 (win64, Python) logging started 12/12/17 19:49:24


Gurobi 7.5.1 (win64, Python) logging started 12/12/17 19:49:35


Gurobi 7.5.1 (win64, Python) logging started 12/12/17 19:49:44


Gurobi 7.5.1 (win64, Python) logging started 12/12/17 19:49:52


Gurobi 7.5.1 (win64, Python) logging started 12/12/17 19:50:00


Gurobi 7.5.1 (win64, Python) logging started 12/12/17 19:50:08


Gurobi 7.5.1 (win64, Python) logging started 12/12/17 19:51:03


Gurobi 7.5.1 (win64, Python) logging started 12/12/17 19:51:14


Gurobi 7.5.1 (win64, Python) logging started 12/12/17 19:51:48


Gurobi 7.5.1 (win64, Python) logging started 12/12/17 19:52:31


Gurobi 7.5.1 (win64, Python) logging started 12/12/17 19:53:17


Gurobi 7.5.1 (win64, Python) logging started 12/12/17 21:05:25


Gurobi 7.5.1 (win64, Python) logging started 01/22/18 12:12:42


Gurobi 7.5.1 (win64, Python) logging started 01/25/18 22:52:31

